c Mesh Graph
c 26 Rows, 24 columns, capacities in range [0, 660]
p max 626 1846
n 1 s
n 626 t
a 1 27 1980
a 1 26 1980
a 1 25 1980
a 1 24 1980
a 1 23 1980
a 1 22 1980
a 1 21 1980
a 1 20 1980
a 1 19 1980
a 1 18 1980
a 1 17 1980
a 1 16 1980
a 1 15 1980
a 1 14 1980
a 1 13 1980
a 1 12 1980
a 1 11 1980
a 1 10 1980
a 1 9 1980
a 1 8 1980
a 1 7 1980
a 1 6 1980
a 1 5 1980
a 1 4 1980
a 1 3 1980
a 1 2 1980
a 2 29 238
a 2 28 407
a 2 53 524
a 3 30 236
a 3 29 354
a 3 28 476
a 4 31 70
a 4 30 73
a 4 29 287
a 5 32 8
a 5 31 603
a 5 30 2
a 6 33 624
a 6 32 620
a 6 31 171
a 7 34 187
a 7 33 241
a 7 32 467
a 8 35 132
a 8 34 617
a 8 33 113
a 9 36 430
a 9 35 28
a 9 34 9
a 10 37 243
a 10 36 51
a 10 35 423
a 11 38 176
a 11 37 488
a 11 36 44
a 12 39 583
a 12 38 283
a 12 37 330
a 13 40 208
a 13 39 30
a 13 38 499
a 14 41 212
a 14 40 317
a 14 39 74
a 15 42 154
a 15 41 250
a 15 40 143
a 16 43 45
a 16 42 420
a 16 41 82
a 17 44 285
a 17 43 159
a 17 42 638
a 18 45 174
a 18 44 271
a 18 43 96
a 19 46 201
a 19 45 212
a 19 44 227
a 20 47 183
a 20 46 634
a 20 45 657
a 21 48 602
a 21 47 17
a 21 46 171
a 22 49 225
a 22 48 346
a 22 47 346
a 23 50 186
a 23 49 117
a 23 48 268
a 24 51 434
a 24 50 190
a 24 49 407
a 25 52 616
a 25 51 265
a 25 50 618
a 26 53 375
a 26 52 346
a 26 51 43
a 27 28 465
a 27 53 255
a 27 52 88
a 28 55 8
a 28 54 351
a 28 79 304
a 29 56 219
a 29 55 577
a 29 54 409
a 30 57 124
a 30 56 505
a 30 55 609
a 31 58 140
a 31 57 15
a 31 56 132
a 32 59 417
a 32 58 361
a 32 57 73
a 33 60 533
a 33 59 560
a 33 58 229
a 34 61 655
a 34 60 307
a 34 59 347
a 35 62 191
a 35 61 196
a 35 60 120
a 36 63 468
a 36 62 239
a 36 61 75
a 37 64 63
a 37 63 258
a 37 62 382
a 38 65 413
a 38 64 493
a 38 63 118
a 39 66 261
a 39 65 242
a 39 64 57
a 40 67 106
a 40 66 122
a 40 65 207
a 41 68 120
a 41 67 185
a 41 66 330
a 42 69 412
a 42 68 190
a 42 67 401
a 43 70 312
a 43 69 418
a 43 68 158
a 44 71 550
a 44 70 36
a 44 69 622
a 45 72 17
a 45 71 88
a 45 70 548
a 46 73 187
a 46 72 94
a 46 71 78
a 47 74 444
a 47 73 407
a 47 72 546
a 48 75 209
a 48 74 525
a 48 73 540
a 49 76 450
a 49 75 513
a 49 74 292
a 50 77 571
a 50 76 60
a 50 75 484
a 51 78 96
a 51 77 389
a 51 76 589
a 52 79 217
a 52 78 130
a 52 77 641
a 53 54 566
a 53 79 219
a 53 78 324
a 54 81 602
a 54 80 112
a 54 105 567
a 55 82 29
a 55 81 660
a 55 80 456
a 56 83 122
a 56 82 9
a 56 81 405
a 57 84 461
a 57 83 554
a 57 82 591
a 58 85 325
a 58 84 365
a 58 83 375
a 59 86 177
a 59 85 588
a 59 84 515
a 60 87 168
a 60 86 412
a 60 85 304
a 61 88 557
a 61 87 340
a 61 86 146
a 62 89 618
a 62 88 252
a 62 87 173
a 63 90 108
a 63 89 576
a 63 88 389
a 64 91 219
a 64 90 482
a 64 89 295
a 65 92 218
a 65 91 210
a 65 90 236
a 66 93 159
a 66 92 614
a 66 91 196
a 67 94 52
a 67 93 544
a 67 92 249
a 68 95 417
a 68 94 190
a 68 93 49
a 69 96 344
a 69 95 44
a 69 94 305
a 70 97 27
a 70 96 279
a 70 95 414
a 71 98 299
a 71 97 425
a 71 96 581
a 72 99 550
a 72 98 529
a 72 97 409
a 73 100 397
a 73 99 258
a 73 98 298
a 74 101 151
a 74 100 484
a 74 99 405
a 75 102 360
a 75 101 651
a 75 100 624
a 76 103 245
a 76 102 186
a 76 101 113
a 77 104 60
a 77 103 366
a 77 102 271
a 78 105 250
a 78 104 347
a 78 103 255
a 79 80 225
a 79 105 583
a 79 104 603
a 80 107 436
a 80 106 268
a 80 131 218
a 81 108 132
a 81 107 189
a 81 106 245
a 82 109 660
a 82 108 529
a 82 107 543
a 83 110 189
a 83 109 167
a 83 108 364
a 84 111 12
a 84 110 503
a 84 109 101
a 85 112 2
a 85 111 466
a 85 110 251
a 86 113 119
a 86 112 511
a 86 111 542
a 87 114 417
a 87 113 121
a 87 112 126
a 88 115 103
a 88 114 307
a 88 113 185
a 89 116 617
a 89 115 249
a 89 114 366
a 90 117 225
a 90 116 399
a 90 115 523
a 91 118 345
a 91 117 643
a 91 116 298
a 92 119 213
a 92 118 457
a 92 117 361
a 93 120 311
a 93 119 160
a 93 118 360
a 94 121 154
a 94 120 192
a 94 119 549
a 95 122 551
a 95 121 442
a 95 120 492
a 96 123 401
a 96 122 255
a 96 121 494
a 97 124 522
a 97 123 380
a 97 122 544
a 98 125 100
a 98 124 497
a 98 123 300
a 99 126 349
a 99 125 134
a 99 124 334
a 100 127 87
a 100 126 656
a 100 125 291
a 101 128 1
a 101 127 225
a 101 126 447
a 102 129 457
a 102 128 585
a 102 127 131
a 103 130 548
a 103 129 217
a 103 128 343
a 104 131 80
a 104 130 37
a 104 129 586
a 105 106 453
a 105 131 528
a 105 130 79
a 106 133 640
a 106 132 293
a 106 157 629
a 107 134 291
a 107 133 177
a 107 132 370
a 108 135 127
a 108 134 408
a 108 133 163
a 109 136 193
a 109 135 14
a 109 134 262
a 110 137 120
a 110 136 236
a 110 135 542
a 111 138 345
a 111 137 22
a 111 136 560
a 112 139 201
a 112 138 152
a 112 137 560
a 113 140 349
a 113 139 426
a 113 138 288
a 114 141 385
a 114 140 351
a 114 139 108
a 115 142 185
a 115 141 361
a 115 140 119
a 116 143 477
a 116 142 330
a 116 141 503
a 117 144 585
a 117 143 631
a 117 142 482
a 118 145 333
a 118 144 133
a 118 143 113
a 119 146 346
a 119 145 326
a 119 144 171
a 120 147 581
a 120 146 140
a 120 145 363
a 121 148 534
a 121 147 39
a 121 146 483
a 122 149 25
a 122 148 531
a 122 147 99
a 123 150 382
a 123 149 90
a 123 148 231
a 124 151 73
a 124 150 197
a 124 149 580
a 125 152 365
a 125 151 315
a 125 150 236
a 126 153 34
a 126 152 90
a 126 151 420
a 127 154 596
a 127 153 571
a 127 152 237
a 128 155 660
a 128 154 23
a 128 153 161
a 129 156 326
a 129 155 194
a 129 154 425
a 130 157 465
a 130 156 488
a 130 155 42
a 131 132 435
a 131 157 242
a 131 156 554
a 132 159 305
a 132 158 340
a 132 183 427
a 133 160 327
a 133 159 503
a 133 158 383
a 134 161 523
a 134 160 422
a 134 159 105
a 135 162 110
a 135 161 589
a 135 160 109
a 136 163 199
a 136 162 349
a 136 161 473
a 137 164 109
a 137 163 517
a 137 162 439
a 138 165 64
a 138 164 609
a 138 163 374
a 139 166 189
a 139 165 374
a 139 164 374
a 140 167 608
a 140 166 415
a 140 165 631
a 141 168 190
a 141 167 309
a 141 166 367
a 142 169 529
a 142 168 7
a 142 167 141
a 143 170 371
a 143 169 390
a 143 168 378
a 144 171 64
a 144 170 494
a 144 169 44
a 145 172 653
a 145 171 534
a 145 170 498
a 146 173 273
a 146 172 346
a 146 171 607
a 147 174 129
a 147 173 56
a 147 172 77
a 148 175 77
a 148 174 430
a 148 173 118
a 149 176 382
a 149 175 75
a 149 174 181
a 150 177 69
a 150 176 45
a 150 175 301
a 151 178 309
a 151 177 411
a 151 176 248
a 152 179 315
a 152 178 483
a 152 177 437
a 153 180 44
a 153 179 200
a 153 178 238
a 154 181 469
a 154 180 243
a 154 179 540
a 155 182 342
a 155 181 81
a 155 180 604
a 156 183 620
a 156 182 619
a 156 181 528
a 157 158 15
a 157 183 36
a 157 182 72
a 158 185 376
a 158 184 153
a 158 209 200
a 159 186 450
a 159 185 265
a 159 184 208
a 160 187 426
a 160 186 565
a 160 185 590
a 161 188 176
a 161 187 84
a 161 186 590
a 162 189 659
a 162 188 521
a 162 187 238
a 163 190 130
a 163 189 30
a 163 188 552
a 164 191 373
a 164 190 569
a 164 189 528
a 165 192 385
a 165 191 444
a 165 190 336
a 166 193 343
a 166 192 311
a 166 191 610
a 167 194 310
a 167 193 382
a 167 192 501
a 168 195 462
a 168 194 513
a 168 193 447
a 169 196 658
a 169 195 61
a 169 194 163
a 170 197 562
a 170 196 582
a 170 195 544
a 171 198 646
a 171 197 511
a 171 196 310
a 172 199 438
a 172 198 88
a 172 197 417
a 173 200 467
a 173 199 571
a 173 198 415
a 174 201 375
a 174 200 438
a 174 199 545
a 175 202 159
a 175 201 46
a 175 200 189
a 176 203 401
a 176 202 587
a 176 201 573
a 177 204 55
a 177 203 427
a 177 202 187
a 178 205 499
a 178 204 213
a 178 203 497
a 179 206 491
a 179 205 307
a 179 204 230
a 180 207 412
a 180 206 191
a 180 205 228
a 181 208 194
a 181 207 432
a 181 206 61
a 182 209 213
a 182 208 188
a 182 207 638
a 183 184 56
a 183 209 535
a 183 208 347
a 184 211 493
a 184 210 351
a 184 235 153
a 185 212 470
a 185 211 471
a 185 210 460
a 186 213 396
a 186 212 315
a 186 211 550
a 187 214 94
a 187 213 501
a 187 212 222
a 188 215 239
a 188 214 269
a 188 213 208
a 189 216 545
a 189 215 431
a 189 214 47
a 190 217 7
a 190 216 658
a 190 215 537
a 191 218 438
a 191 217 650
a 191 216 221
a 192 219 558
a 192 218 560
a 192 217 346
a 193 220 364
a 193 219 246
a 193 218 559
a 194 221 54
a 194 220 399
a 194 219 614
a 195 222 524
a 195 221 130
a 195 220 378
a 196 223 178
a 196 222 19
a 196 221 188
a 197 224 610
a 197 223 172
a 197 222 515
a 198 225 219
a 198 224 380
a 198 223 541
a 199 226 649
a 199 225 426
a 199 224 119
a 200 227 578
a 200 226 234
a 200 225 595
a 201 228 499
a 201 227 454
a 201 226 602
a 202 229 398
a 202 228 140
a 202 227 311
a 203 230 644
a 203 229 630
a 203 228 140
a 204 231 314
a 204 230 515
a 204 229 503
a 205 232 443
a 205 231 232
a 205 230 488
a 206 233 393
a 206 232 351
a 206 231 283
a 207 234 496
a 207 233 138
a 207 232 392
a 208 235 215
a 208 234 18
a 208 233 342
a 209 210 572
a 209 235 68
a 209 234 492
a 210 237 78
a 210 236 2
a 210 261 412
a 211 238 531
a 211 237 535
a 211 236 261
a 212 239 602
a 212 238 186
a 212 237 99
a 213 240 503
a 213 239 257
a 213 238 497
a 214 241 357
a 214 240 100
a 214 239 412
a 215 242 521
a 215 241 519
a 215 240 65
a 216 243 211
a 216 242 142
a 216 241 439
a 217 244 280
a 217 243 533
a 217 242 103
a 218 245 297
a 218 244 146
a 218 243 598
a 219 246 364
a 219 245 637
a 219 244 85
a 220 247 298
a 220 246 320
a 220 245 588
a 221 248 172
a 221 247 580
a 221 246 5
a 222 249 357
a 222 248 611
a 222 247 468
a 223 250 546
a 223 249 379
a 223 248 341
a 224 251 645
a 224 250 130
a 224 249 184
a 225 252 435
a 225 251 126
a 225 250 472
a 226 253 576
a 226 252 496
a 226 251 332
a 227 254 449
a 227 253 530
a 227 252 475
a 228 255 526
a 228 254 399
a 228 253 94
a 229 256 503
a 229 255 483
a 229 254 323
a 230 257 94
a 230 256 411
a 230 255 618
a 231 258 14
a 231 257 347
a 231 256 255
a 232 259 624
a 232 258 154
a 232 257 427
a 233 260 274
a 233 259 495
a 233 258 55
a 234 261 403
a 234 260 18
a 234 259 600
a 235 236 460
a 235 261 489
a 235 260 516
a 236 263 295
a 236 262 93
a 236 287 291
a 237 264 96
a 237 263 567
a 237 262 138
a 238 265 494
a 238 264 592
a 238 263 518
a 239 266 249
a 239 265 254
a 239 264 384
a 240 267 591
a 240 266 212
a 240 265 226
a 241 268 277
a 241 267 398
a 241 266 319
a 242 269 431
a 242 268 96
a 242 267 264
a 243 270 265
a 243 269 151
a 243 268 159
a 244 271 214
a 244 270 22
a 244 269 432
a 245 272 634
a 245 271 470
a 245 270 106
a 246 273 66
a 246 272 32
a 246 271 565
a 247 274 564
a 247 273 169
a 247 272 131
a 248 275 496
a 248 274 27
a 248 273 226
a 249 276 21
a 249 275 410
a 249 274 60
a 250 277 164
a 250 276 567
a 250 275 308
a 251 278 562
a 251 277 157
a 251 276 238
a 252 279 657
a 252 278 421
a 252 277 446
a 253 280 79
a 253 279 511
a 253 278 216
a 254 281 33
a 254 280 283
a 254 279 412
a 255 282 502
a 255 281 320
a 255 280 557
a 256 283 533
a 256 282 225
a 256 281 531
a 257 284 41
a 257 283 355
a 257 282 528
a 258 285 659
a 258 284 513
a 258 283 364
a 259 286 408
a 259 285 504
a 259 284 131
a 260 287 314
a 260 286 151
a 260 285 151
a 261 262 403
a 261 287 320
a 261 286 315
a 262 289 163
a 262 288 105
a 262 313 148
a 263 290 605
a 263 289 253
a 263 288 76
a 264 291 159
a 264 290 4
a 264 289 155
a 265 292 479
a 265 291 561
a 265 290 187
a 266 293 43
a 266 292 363
a 266 291 620
a 267 294 329
a 267 293 162
a 267 292 424
a 268 295 113
a 268 294 525
a 268 293 464
a 269 296 616
a 269 295 655
a 269 294 463
a 270 297 106
a 270 296 78
a 270 295 142
a 271 298 357
a 271 297 392
a 271 296 388
a 272 299 462
a 272 298 539
a 272 297 130
a 273 300 54
a 273 299 614
a 273 298 224
a 274 301 649
a 274 300 40
a 274 299 168
a 275 302 481
a 275 301 158
a 275 300 327
a 276 303 115
a 276 302 49
a 276 301 145
a 277 304 277
a 277 303 472
a 277 302 119
a 278 305 73
a 278 304 276
a 278 303 379
a 279 306 660
a 279 305 10
a 279 304 492
a 280 307 77
a 280 306 151
a 280 305 447
a 281 308 400
a 281 307 470
a 281 306 485
a 282 309 210
a 282 308 599
a 282 307 181
a 283 310 95
a 283 309 162
a 283 308 574
a 284 311 67
a 284 310 330
a 284 309 559
a 285 312 224
a 285 311 588
a 285 310 548
a 286 313 273
a 286 312 72
a 286 311 368
a 287 288 16
a 287 313 122
a 287 312 483
a 288 315 291
a 288 314 500
a 288 339 31
a 289 316 232
a 289 315 331
a 289 314 35
a 290 317 315
a 290 316 118
a 290 315 34
a 291 318 124
a 291 317 602
a 291 316 42
a 292 319 63
a 292 318 54
a 292 317 441
a 293 320 156
a 293 319 628
a 293 318 582
a 294 321 485
a 294 320 526
a 294 319 17
a 295 322 412
a 295 321 413
a 295 320 83
a 296 323 415
a 296 322 53
a 296 321 238
a 297 324 536
a 297 323 467
a 297 322 442
a 298 325 376
a 298 324 429
a 298 323 458
a 299 326 638
a 299 325 463
a 299 324 20
a 300 327 95
a 300 326 497
a 300 325 184
a 301 328 628
a 301 327 470
a 301 326 498
a 302 329 22
a 302 328 183
a 302 327 553
a 303 330 581
a 303 329 104
a 303 328 547
a 304 331 446
a 304 330 52
a 304 329 43
a 305 332 131
a 305 331 66
a 305 330 527
a 306 333 115
a 306 332 304
a 306 331 211
a 307 334 581
a 307 333 17
a 307 332 557
a 308 335 349
a 308 334 406
a 308 333 433
a 309 336 151
a 309 335 426
a 309 334 80
a 310 337 579
a 310 336 541
a 310 335 57
a 311 338 389
a 311 337 378
a 311 336 84
a 312 339 571
a 312 338 202
a 312 337 643
a 313 314 606
a 313 339 89
a 313 338 596
a 314 341 658
a 314 340 131
a 314 365 516
a 315 342 63
a 315 341 589
a 315 340 234
a 316 343 298
a 316 342 71
a 316 341 364
a 317 344 247
a 317 343 628
a 317 342 478
a 318 345 652
a 318 344 332
a 318 343 330
a 319 346 349
a 319 345 411
a 319 344 610
a 320 347 229
a 320 346 399
a 320 345 100
a 321 348 538
a 321 347 414
a 321 346 611
a 322 349 80
a 322 348 397
a 322 347 271
a 323 350 168
a 323 349 332
a 323 348 113
a 324 351 298
a 324 350 120
a 324 349 58
a 325 352 158
a 325 351 353
a 325 350 647
a 326 353 229
a 326 352 56
a 326 351 642
a 327 354 196
a 327 353 465
a 327 352 279
a 328 355 527
a 328 354 66
a 328 353 457
a 329 356 209
a 329 355 15
a 329 354 449
a 330 357 539
a 330 356 114
a 330 355 69
a 331 358 293
a 331 357 656
a 331 356 298
a 332 359 621
a 332 358 266
a 332 357 175
a 333 360 224
a 333 359 378
a 333 358 186
a 334 361 343
a 334 360 368
a 334 359 353
a 335 362 35
a 335 361 354
a 335 360 582
a 336 363 22
a 336 362 335
a 336 361 80
a 337 364 418
a 337 363 546
a 337 362 240
a 338 365 483
a 338 364 342
a 338 363 435
a 339 340 497
a 339 365 62
a 339 364 233
a 340 367 543
a 340 366 131
a 340 391 373
a 341 368 538
a 341 367 360
a 341 366 183
a 342 369 76
a 342 368 534
a 342 367 475
a 343 370 385
a 343 369 652
a 343 368 367
a 344 371 92
a 344 370 344
a 344 369 591
a 345 372 378
a 345 371 198
a 345 370 273
a 346 373 52
a 346 372 209
a 346 371 240
a 347 374 597
a 347 373 448
a 347 372 261
a 348 375 211
a 348 374 222
a 348 373 611
a 349 376 272
a 349 375 386
a 349 374 433
a 350 377 402
a 350 376 98
a 350 375 270
a 351 378 33
a 351 377 212
a 351 376 84
a 352 379 499
a 352 378 27
a 352 377 621
a 353 380 490
a 353 379 325
a 353 378 628
a 354 381 105
a 354 380 255
a 354 379 353
a 355 382 302
a 355 381 460
a 355 380 376
a 356 383 510
a 356 382 39
a 356 381 93
a 357 384 297
a 357 383 231
a 357 382 77
a 358 385 450
a 358 384 181
a 358 383 605
a 359 386 175
a 359 385 546
a 359 384 155
a 360 387 204
a 360 386 87
a 360 385 427
a 361 388 416
a 361 387 170
a 361 386 100
a 362 389 374
a 362 388 62
a 362 387 133
a 363 390 630
a 363 389 30
a 363 388 631
a 364 391 225
a 364 390 314
a 364 389 392
a 365 366 616
a 365 391 29
a 365 390 496
a 366 393 654
a 366 392 54
a 366 417 138
a 367 394 156
a 367 393 130
a 367 392 579
a 368 395 269
a 368 394 74
a 368 393 216
a 369 396 154
a 369 395 161
a 369 394 597
a 370 397 172
a 370 396 587
a 370 395 44
a 371 398 341
a 371 397 618
a 371 396 179
a 372 399 402
a 372 398 22
a 372 397 526
a 373 400 431
a 373 399 584
a 373 398 171
a 374 401 16
a 374 400 315
a 374 399 141
a 375 402 45
a 375 401 83
a 375 400 365
a 376 403 30
a 376 402 220
a 376 401 320
a 377 404 159
a 377 403 70
a 377 402 245
a 378 405 164
a 378 404 217
a 378 403 332
a 379 406 324
a 379 405 154
a 379 404 600
a 380 407 182
a 380 406 197
a 380 405 25
a 381 408 72
a 381 407 307
a 381 406 196
a 382 409 93
a 382 408 173
a 382 407 468
a 383 410 609
a 383 409 343
a 383 408 210
a 384 411 195
a 384 410 483
a 384 409 572
a 385 412 277
a 385 411 119
a 385 410 588
a 386 413 428
a 386 412 438
a 386 411 564
a 387 414 498
a 387 413 614
a 387 412 593
a 388 415 54
a 388 414 286
a 388 413 23
a 389 416 139
a 389 415 157
a 389 414 118
a 390 417 267
a 390 416 114
a 390 415 442
a 391 392 574
a 391 417 241
a 391 416 555
a 392 419 86
a 392 418 49
a 392 443 626
a 393 420 360
a 393 419 190
a 393 418 651
a 394 421 183
a 394 420 101
a 394 419 599
a 395 422 301
a 395 421 620
a 395 420 65
a 396 423 11
a 396 422 523
a 396 421 342
a 397 424 624
a 397 423 387
a 397 422 41
a 398 425 249
a 398 424 341
a 398 423 470
a 399 426 338
a 399 425 459
a 399 424 524
a 400 427 451
a 400 426 172
a 400 425 594
a 401 428 31
a 401 427 66
a 401 426 201
a 402 429 79
a 402 428 32
a 402 427 114
a 403 430 268
a 403 429 22
a 403 428 131
a 404 431 301
a 404 430 552
a 404 429 490
a 405 432 260
a 405 431 616
a 405 430 604
a 406 433 55
a 406 432 229
a 406 431 245
a 407 434 373
a 407 433 270
a 407 432 187
a 408 435 54
a 408 434 11
a 408 433 150
a 409 436 444
a 409 435 534
a 409 434 331
a 410 437 615
a 410 436 400
a 410 435 8
a 411 438 612
a 411 437 600
a 411 436 390
a 412 439 643
a 412 438 645
a 412 437 420
a 413 440 596
a 413 439 47
a 413 438 431
a 414 441 487
a 414 440 536
a 414 439 630
a 415 442 375
a 415 441 412
a 415 440 202
a 416 443 603
a 416 442 588
a 416 441 394
a 417 418 144
a 417 443 114
a 417 442 448
a 418 445 155
a 418 444 263
a 418 469 160
a 419 446 620
a 419 445 525
a 419 444 145
a 420 447 359
a 420 446 464
a 420 445 520
a 421 448 230
a 421 447 193
a 421 446 474
a 422 449 214
a 422 448 545
a 422 447 426
a 423 450 260
a 423 449 315
a 423 448 340
a 424 451 68
a 424 450 216
a 424 449 276
a 425 452 411
a 425 451 350
a 425 450 34
a 426 453 338
a 426 452 83
a 426 451 408
a 427 454 451
a 427 453 530
a 427 452 283
a 428 455 645
a 428 454 621
a 428 453 426
a 429 456 510
a 429 455 38
a 429 454 512
a 430 457 313
a 430 456 557
a 430 455 404
a 431 458 506
a 431 457 303
a 431 456 102
a 432 459 322
a 432 458 660
a 432 457 264
a 433 460 568
a 433 459 339
a 433 458 409
a 434 461 123
a 434 460 546
a 434 459 601
a 435 462 472
a 435 461 580
a 435 460 8
a 436 463 554
a 436 462 327
a 436 461 350
a 437 464 355
a 437 463 609
a 437 462 27
a 438 465 248
a 438 464 307
a 438 463 477
a 439 466 285
a 439 465 158
a 439 464 393
a 440 467 181
a 440 466 561
a 440 465 242
a 441 468 415
a 441 467 595
a 441 466 487
a 442 469 414
a 442 468 198
a 442 467 264
a 443 444 93
a 443 469 538
a 443 468 585
a 444 471 570
a 444 470 478
a 444 495 492
a 445 472 489
a 445 471 417
a 445 470 546
a 446 473 156
a 446 472 106
a 446 471 290
a 447 474 36
a 447 473 132
a 447 472 183
a 448 475 342
a 448 474 540
a 448 473 470
a 449 476 432
a 449 475 273
a 449 474 57
a 450 477 264
a 450 476 446
a 450 475 341
a 451 478 130
a 451 477 272
a 451 476 453
a 452 479 259
a 452 478 467
a 452 477 208
a 453 480 137
a 453 479 391
a 453 478 553
a 454 481 614
a 454 480 154
a 454 479 645
a 455 482 371
a 455 481 40
a 455 480 487
a 456 483 476
a 456 482 329
a 456 481 315
a 457 484 540
a 457 483 443
a 457 482 402
a 458 485 419
a 458 484 184
a 458 483 438
a 459 486 623
a 459 485 240
a 459 484 51
a 460 487 409
a 460 486 512
a 460 485 414
a 461 488 612
a 461 487 305
a 461 486 18
a 462 489 419
a 462 488 444
a 462 487 147
a 463 490 81
a 463 489 336
a 463 488 406
a 464 491 167
a 464 490 253
a 464 489 542
a 465 492 206
a 465 491 79
a 465 490 495
a 466 493 466
a 466 492 393
a 466 491 137
a 467 494 180
a 467 493 67
a 467 492 613
a 468 495 364
a 468 494 504
a 468 493 492
a 469 470 603
a 469 495 486
a 469 494 182
a 470 497 455
a 470 496 240
a 470 521 77
a 471 498 31
a 471 497 257
a 471 496 485
a 472 499 474
a 472 498 335
a 472 497 368
a 473 500 81
a 473 499 80
a 473 498 58
a 474 501 333
a 474 500 553
a 474 499 71
a 475 502 411
a 475 501 320
a 475 500 237
a 476 503 76
a 476 502 456
a 476 501 374
a 477 504 142
a 477 503 408
a 477 502 179
a 478 505 577
a 478 504 171
a 478 503 358
a 479 506 402
a 479 505 285
a 479 504 61
a 480 507 573
a 480 506 361
a 480 505 4
a 481 508 101
a 481 507 117
a 481 506 390
a 482 509 436
a 482 508 484
a 482 507 420
a 483 510 447
a 483 509 474
a 483 508 165
a 484 511 272
a 484 510 544
a 484 509 245
a 485 512 591
a 485 511 52
a 485 510 510
a 486 513 386
a 486 512 425
a 486 511 260
a 487 514 66
a 487 513 603
a 487 512 267
a 488 515 168
a 488 514 232
a 488 513 340
a 489 516 452
a 489 515 225
a 489 514 188
a 490 517 152
a 490 516 160
a 490 515 522
a 491 518 268
a 491 517 549
a 491 516 434
a 492 519 24
a 492 518 240
a 492 517 535
a 493 520 429
a 493 519 404
a 493 518 242
a 494 521 244
a 494 520 580
a 494 519 28
a 495 496 295
a 495 521 429
a 495 520 299
a 496 523 59
a 496 522 621
a 496 547 161
a 497 524 593
a 497 523 159
a 497 522 547
a 498 525 96
a 498 524 499
a 498 523 544
a 499 526 320
a 499 525 26
a 499 524 51
a 500 527 479
a 500 526 547
a 500 525 503
a 501 528 299
a 501 527 253
a 501 526 586
a 502 529 538
a 502 528 127
a 502 527 194
a 503 530 213
a 503 529 368
a 503 528 149
a 504 531 133
a 504 530 327
a 504 529 577
a 505 532 561
a 505 531 558
a 505 530 160
a 506 533 453
a 506 532 58
a 506 531 454
a 507 534 612
a 507 533 536
a 507 532 444
a 508 535 450
a 508 534 419
a 508 533 308
a 509 536 407
a 509 535 402
a 509 534 335
a 510 537 226
a 510 536 244
a 510 535 655
a 511 538 478
a 511 537 169
a 511 536 405
a 512 539 536
a 512 538 294
a 512 537 44
a 513 540 175
a 513 539 442
a 513 538 581
a 514 541 501
a 514 540 358
a 514 539 66
a 515 542 330
a 515 541 449
a 515 540 198
a 516 543 320
a 516 542 174
a 516 541 30
a 517 544 195
a 517 543 617
a 517 542 415
a 518 545 546
a 518 544 196
a 518 543 366
a 519 546 287
a 519 545 531
a 519 544 87
a 520 547 530
a 520 546 457
a 520 545 493
a 521 522 630
a 521 547 133
a 521 546 650
a 522 549 196
a 522 548 176
a 522 573 467
a 523 550 637
a 523 549 29
a 523 548 274
a 524 551 267
a 524 550 94
a 524 549 448
a 525 552 647
a 525 551 223
a 525 550 221
a 526 553 161
a 526 552 184
a 526 551 550
a 527 554 117
a 527 553 598
a 527 552 209
a 528 555 245
a 528 554 303
a 528 553 336
a 529 556 47
a 529 555 321
a 529 554 221
a 530 557 435
a 530 556 86
a 530 555 439
a 531 558 567
a 531 557 75
a 531 556 240
a 532 559 83
a 532 558 474
a 532 557 209
a 533 560 43
a 533 559 87
a 533 558 404
a 534 561 68
a 534 560 535
a 534 559 313
a 535 562 290
a 535 561 95
a 535 560 511
a 536 563 405
a 536 562 576
a 536 561 497
a 537 564 343
a 537 563 125
a 537 562 657
a 538 565 577
a 538 564 392
a 538 563 46
a 539 566 238
a 539 565 544
a 539 564 222
a 540 567 323
a 540 566 322
a 540 565 268
a 541 568 329
a 541 567 561
a 541 566 42
a 542 569 142
a 542 568 41
a 542 567 540
a 543 570 229
a 543 569 445
a 543 568 554
a 544 571 103
a 544 570 29
a 544 569 596
a 545 572 197
a 545 571 471
a 545 570 3
a 546 573 112
a 546 572 307
a 546 571 224
a 547 548 168
a 547 573 236
a 547 572 561
a 548 575 491
a 548 574 213
a 548 599 175
a 549 576 374
a 549 575 434
a 549 574 91
a 550 577 35
a 550 576 41
a 550 575 260
a 551 578 595
a 551 577 14
a 551 576 514
a 552 579 636
a 552 578 485
a 552 577 183
a 553 580 352
a 553 579 379
a 553 578 324
a 554 581 312
a 554 580 314
a 554 579 552
a 555 582 122
a 555 581 249
a 555 580 586
a 556 583 360
a 556 582 404
a 556 581 54
a 557 584 595
a 557 583 236
a 557 582 98
a 558 585 147
a 558 584 410
a 558 583 265
a 559 586 512
a 559 585 433
a 559 584 28
a 560 587 484
a 560 586 32
a 560 585 401
a 561 588 497
a 561 587 478
a 561 586 368
a 562 589 322
a 562 588 660
a 562 587 234
a 563 590 632
a 563 589 255
a 563 588 141
a 564 591 217
a 564 590 79
a 564 589 492
a 565 592 465
a 565 591 4
a 565 590 75
a 566 593 141
a 566 592 58
a 566 591 128
a 567 594 376
a 567 593 155
a 567 592 488
a 568 595 58
a 568 594 351
a 568 593 354
a 569 596 490
a 569 595 310
a 569 594 433
a 570 597 453
a 570 596 51
a 570 595 284
a 571 598 270
a 571 597 350
a 571 596 108
a 572 599 201
a 572 598 583
a 572 597 536
a 573 574 456
a 573 599 64
a 573 598 129
a 574 601 466
a 574 600 487
a 574 625 100
a 575 602 401
a 575 601 494
a 575 600 317
a 576 603 458
a 576 602 621
a 576 601 53
a 577 604 544
a 577 603 448
a 577 602 125
a 578 605 167
a 578 604 142
a 578 603 501
a 579 606 408
a 579 605 506
a 579 604 558
a 580 607 390
a 580 606 129
a 580 605 319
a 581 608 79
a 581 607 168
a 581 606 111
a 582 609 2
a 582 608 44
a 582 607 381
a 583 610 657
a 583 609 104
a 583 608 581
a 584 611 483
a 584 610 204
a 584 609 308
a 585 612 316
a 585 611 452
a 585 610 113
a 586 613 209
a 586 612 504
a 586 611 514
a 587 614 656
a 587 613 629
a 587 612 243
a 588 615 69
a 588 614 401
a 588 613 59
a 589 616 574
a 589 615 230
a 589 614 157
a 590 617 635
a 590 616 548
a 590 615 564
a 591 618 142
a 591 617 658
a 591 616 294
a 592 619 117
a 592 618 310
a 592 617 304
a 593 620 221
a 593 619 163
a 593 618 305
a 594 621 356
a 594 620 470
a 594 619 233
a 595 622 147
a 595 621 515
a 595 620 648
a 596 623 582
a 596 622 300
a 596 621 235
a 597 624 482
a 597 623 474
a 597 622 443
a 598 625 154
a 598 624 532
a 598 623 439
a 599 600 383
a 599 625 620
a 599 624 439
a 600 626 1980
a 601 626 1980
a 602 626 1980
a 603 626 1980
a 604 626 1980
a 605 626 1980
a 606 626 1980
a 607 626 1980
a 608 626 1980
a 609 626 1980
a 610 626 1980
a 611 626 1980
a 612 626 1980
a 613 626 1980
a 614 626 1980
a 615 626 1980
a 616 626 1980
a 617 626 1980
a 618 626 1980
a 619 626 1980
a 620 626 1980
a 621 626 1980
a 622 626 1980
a 623 626 1980
a 624 626 1980
a 625 626 1980
